(declare-const x String)
(declare-const y String)
(declare-const m String)
(declare-const n String)
(assert (str.in.re x (re.++ (str.to.re "k") (re.* (str.to.re "A")))))
(assert (str.in.re x (re.++ (str.to.re "y") (re.* (str.to.re "y")))))
(assert (str.in.re x (re.++ (re.* (re.* (str.to.re "y"))) (str.to.re "A"))))
(check-sat)
(get-model)
